Problem:    
Rows:       119
Columns:    254 (254 integer, 254 binary)
Non-zeros:  1314
Status:     INTEGER OPTIMAL
Objective:  score = 6452.752 (MAXimum)

   No.   Row name        Activity     Lower bound   Upper bound
------ ------------    ------------- ------------- -------------
     1 index_0                     0             0               
     2 index_1                     0             0               
     3 index_2                     5             0               
     4 index_3                     3             0               
     5 index_4                     1             0               
     6 index_5                     1             0               
     7 index_6                     1             0               
     8 index_7                    11             0               
     9 index_8                     0             0               
    10 index_9                     1             0               
    11 index_10                    0             0               
    12 index_11                    0             0               
    13 index_12                    2             0               
    14 index_13                    2             0               
    15 index_14                    4             0               
    16 index_15                    2             0               
    17 index_16                    3             0               
    18 index_17                    0             0               
    19 index_18                    4             0               
    20 index_19                    2             0               
    21 index_20                    1             0               
    22 index_21                    2             0               
    23 index_22                    1             0               
    24 index_23                    0             0               
    25 index_24                    2             0               
    26 index_25                    2             0               
    27 index_26                    4             0               
    28 index_27                    1             0               
    29 index_28                    0             0               
    30 index_29                    2             0               
    31 index_30                    3             0               
    32 index_31                    1             0               
    33 index_32                    2             0               
    34 index_33                    0             0               
    35 index_34                    3             0               
    36 index_35                    2             0               
    37 index_36                    2             0               
    38 index_37                    2             0               
    39 index_38                    0             0               
    40 index_39                    0             0               
    41 index_40                    1             0               
    42 index_41                    1             0               
    43 index_42                    0             0               
    44 index_43                   11             0               
    45 index_44                    1             0               
    46 index_45                    6             0               
    47 index_46                    0             0               
    48 index_47                    2             0               
    49 index_48                    0             0               
    50 index_49                    3             0               
    51 index_50                    3             0               
    52 index_51                    1             0               
    53 index_52                    1             0               
    54 index_53                    4             0               
    55 index_54                    1             0               
    56 index_55                    0             0               
    57 index_56                    2             0               
    58 index_57                    0             0               
    59 index_58                    1             0               
    60 index_59                    3             0               
    61 index_60                    0             0               
    62 index_61                    2             0               
    63 index_62                    1             0               
    64 index_63                    1             0               
    65 index_64                    0             0               
    66 index_65                    0             0               
    67 index_66                    1             0               
    68 index_67                    3             0               
    69 index_68                    0             0               
    70 index_69                    1             0               
    71 index_70                    0             0               
    72 index_71                    0             0               
    73 index_72                    3             0               
    74 index_73                    0             0               
    75 index_74                    0             0               
    76 index_75                    1             0               
    77 index_76                    1             0               
    78 index_77                    1             0               
    79 index_78                    1             0               
    80 index_79                    2             0               
    81 index_80                    1             0               
    82 index_81                    2             0               
    83 index_82                    1             0               
    84 index_83                    0             0               
    85 index_84                    0             0               
    86 index_85                    3             0               
    87 index_86                    0             0               
    88 index_87                    0             0               
    89 index_88                    0             0               
    90 index_89                    3             0               
    91 index_90                    0             0               
    92 index_91                    0             0               
    93 index_92                    0             0               
    94 index_93                    0             0               
    95 index_94                    0             0               
    96 index_95                    1             0               
    97 index_96                    1             0               
    98 index_97                    0             0               
    99 index_98                    2             0               
   100 index_99                    2             0               
   101 index_100                   0             0               
   102 index_101                   0             0               
   103 index_102                   0             0               
   104 index_103                   2             0               
   105 index_104                   0             0               
   106 index_105                   2             0               
   107 index_106                   0             0               
   108 index_107                   0             0               
   109 index_108                   0             0               
   110 index_109                   0             0               
   111 index_110                   1             0               
   112 index_111                   1             0               
   113 index_112                   0             0               
   114 index_113                   5             0               
   115 index_114                   0             0               
   116 index_115                   0             0               
   117 index_116                   0             0               
   118 index_117                   3             0               
   119 length                   3830                        6074 

   No. Column name       Activity     Lower bound   Upper bound
------ ------------    ------------- ------------- -------------
     1 c0           *              1             0             1 
     2 c1           *              1             0             1 
     3 c2           *              1             0             1 
     4 c3           *              1             0             1 
     5 c4           *              1             0             1 
     6 c5           *              1             0             1 
     7 c6           *              1             0             1 
     8 c7           *              1             0             1 
     9 c8           *              1             0             1 
    10 c9           *              1             0             1 
    11 c10          *              1             0             1 
    12 c11          *              1             0             1 
    13 c12          *              1             0             1 
    14 c13          *              1             0             1 
    15 c14          *              1             0             1 
    16 c15          *              1             0             1 
    17 c16          *              1             0             1 
    18 c17          *              1             0             1 
    19 c18          *              1             0             1 
    20 c19          *              1             0             1 
    21 c20          *              1             0             1 
    22 c21          *              1             0             1 
    23 c22          *              1             0             1 
    24 c23          *              1             0             1 
    25 c24          *              1             0             1 
    26 c25          *              1             0             1 
    27 c26          *              1             0             1 
    28 c27          *              1             0             1 
    29 c28          *              1             0             1 
    30 c29          *              1             0             1 
    31 c30          *              1             0             1 
    32 c31          *              1             0             1 
    33 c32          *              1             0             1 
    34 c33          *              1             0             1 
    35 c34          *              1             0             1 
    36 c35          *              1             0             1 
    37 c36          *              1             0             1 
    38 c37          *              1             0             1 
    39 c38          *              1             0             1 
    40 c39          *              1             0             1 
    41 c40          *              1             0             1 
    42 c41          *              1             0             1 
    43 c42          *              1             0             1 
    44 c43          *              1             0             1 
    45 c44          *              1             0             1 
    46 c45          *              1             0             1 
    47 c46          *              1             0             1 
    48 c47          *              1             0             1 
    49 c48          *              1             0             1 
    50 c49          *              1             0             1 
    51 c50          *              1             0             1 
    52 c51          *              1             0             1 
    53 c52          *              1             0             1 
    54 c53          *              1             0             1 
    55 c54          *              1             0             1 
    56 c55          *              1             0             1 
    57 c56          *              1             0             1 
    58 c57          *              1             0             1 
    59 c58          *              1             0             1 
    60 c59          *              1             0             1 
    61 c60          *              1             0             1 
    62 c61          *              1             0             1 
    63 c62          *              1             0             1 
    64 c63          *              1             0             1 
    65 c64          *              1             0             1 
    66 c65          *              1             0             1 
    67 c66          *              1             0             1 
    68 c67          *              1             0             1 
    69 c68          *              1             0             1 
    70 c69          *              1             0             1 
    71 c70          *              1             0             1 
    72 c71          *              1             0             1 
    73 c72          *              1             0             1 
    74 c73          *              1             0             1 
    75 c74          *              1             0             1 
    76 c75          *              1             0             1 
    77 c76          *              1             0             1 
    78 c77          *              1             0             1 
    79 c78          *              1             0             1 
    80 c79          *              1             0             1 
    81 c80          *              1             0             1 
    82 c81          *              1             0             1 
    83 c82          *              1             0             1 
    84 c83          *              1             0             1 
    85 c84          *              1             0             1 
    86 c85          *              1             0             1 
    87 c86          *              1             0             1 
    88 c87          *              1             0             1 
    89 c88          *              1             0             1 
    90 c89          *              1             0             1 
    91 c90          *              1             0             1 
    92 c91          *              1             0             1 
    93 c92          *              1             0             1 
    94 c93          *              1             0             1 
    95 c94          *              1             0             1 
    96 c95          *              1             0             1 
    97 c96          *              1             0             1 
    98 c97          *              1             0             1 
    99 c98          *              1             0             1 
   100 c99          *              1             0             1 
   101 c100         *              1             0             1 
   102 c101         *              1             0             1 
   103 c102         *              1             0             1 
   104 c103         *              1             0             1 
   105 c104         *              1             0             1 
   106 c105         *              1             0             1 
   107 c106         *              1             0             1 
   108 c107         *              1             0             1 
   109 c108         *              1             0             1 
   110 c109         *              1             0             1 
   111 c110         *              1             0             1 
   112 c111         *              1             0             1 
   113 c112         *              1             0             1 
   114 c113         *              1             0             1 
   115 c114         *              1             0             1 
   116 c115         *              1             0             1 
   117 c116         *              1             0             1 
   118 c117         *              1             0             1 
   119 s51          *              0             0             1 
   120 s52          *              0             0             1 
   121 s53          *              0             0             1 
   122 s60          *              0             0             1 
   123 s61          *              0             0             1 
   124 s62          *              0             0             1 
   125 s69          *              1             0             1 
   126 s73          *              0             0             1 
   127 s133         *              0             0             1 
   128 s129         *              0             0             1 
   129 s33          *              1             0             1 
   130 s58          *              0             0             1 
   131 s71          *              0             0             1 
   132 s79          *              0             0             1 
   133 s86          *              1             0             1 
   134 s89          *              0             0             1 
   135 s91          *              0             0             1 
   136 s98          *              1             0             1 
   137 s100         *              1             0             1 
   138 s105         *              1             0             1 
   139 s116         *              0             0             1 
   140 s119         *              0             0             1 
   141 s5           *              1             0             1 
   142 s8           *              0             0             1 
   143 s11          *              0             0             1 
   144 s17          *              0             0             1 
   145 s26          *              0             0             1 
   146 s29          *              0             0             1 
   147 s92          *              1             0             1 
   148 s121         *              0             0             1 
   149 s0           *              0             0             1 
   150 s1           *              0             0             1 
   151 s2           *              0             0             1 
   152 s3           *              0             0             1 
   153 s4           *              0             0             1 
   154 s6           *              1             0             1 
   155 s7           *              0             0             1 
   156 s9           *              1             0             1 
   157 s10          *              0             0             1 
   158 s12          *              0             0             1 
   159 s13          *              0             0             1 
   160 s15          *              0             0             1 
   161 s16          *              0             0             1 
   162 s18          *              0             0             1 
   163 s19          *              0             0             1 
   164 s21          *              0             0             1 
   165 s22          *              0             0             1 
   166 s24          *              0             0             1 
   167 s25          *              0             0             1 
   168 s27          *              0             0             1 
   169 s28          *              0             0             1 
   170 s30          *              0             0             1 
   171 s66          *              0             0             1 
   172 s77          *              0             0             1 
   173 s81          *              0             0             1 
   174 s82          *              0             0             1 
   175 s83          *              0             0             1 
   176 s84          *              0             0             1 
   177 s85          *              0             0             1 
   178 s93          *              0             0             1 
   179 s122         *              0             0             1 
   180 s31          *              0             0             1 
   181 s32          *              0             0             1 
   182 s34          *              0             0             1 
   183 s35          *              0             0             1 
   184 s37          *              0             0             1 
   185 s38          *              0             0             1 
   186 s39          *              1             0             1 
   187 s40          *              0             0             1 
   188 s41          *              0             0             1 
   189 s42          *              1             0             1 
   190 s43          *              0             0             1 
   191 s44          *              0             0             1 
   192 s46          *              0             0             1 
   193 s47          *              0             0             1 
   194 s49          *              0             0             1 
   195 s50          *              0             0             1 
   196 s54          *              0             0             1 
   197 s57          *              0             0             1 
   198 s64          *              0             0             1 
   199 s67          *              1             0             1 
   200 s68          *              0             0             1 
   201 s70          *              0             0             1 
   202 s72          *              0             0             1 
   203 s74          *              1             0             1 
   204 s75          *              0             0             1 
   205 s78          *              0             0             1 
   206 s87          *              0             0             1 
   207 s88          *              0             0             1 
   208 s90          *              0             0             1 
   209 s94          *              0             0             1 
   210 s95          *              0             0             1 
   211 s96          *              1             0             1 
   212 s97          *              0             0             1 
   213 s99          *              0             0             1 
   214 s101         *              0             0             1 
   215 s102         *              0             0             1 
   216 s104         *              0             0             1 
   217 s106         *              0             0             1 
   218 s108         *              0             0             1 
   219 s110         *              0             0             1 
   220 s114         *              1             0             1 
   221 s123         *              1             0             1 
   222 s124         *              0             0             1 
   223 s125         *              0             0             1 
   224 s126         *              0             0             1 
   225 s131         *              0             0             1 
   226 s135         *              1             0             1 
   227 s48          *              0             0             1 
   228 s63          *              1             0             1 
   229 s115         *              0             0             1 
   230 s118         *              0             0             1 
   231 s45          *              0             0             1 
   232 s55          *              1             0             1 
   233 s103         *              0             0             1 
   234 s111         *              0             0             1 
   235 s113         *              0             0             1 
   236 s127         *              1             0             1 
   237 s56          *              1             0             1 
   238 s59          *              0             0             1 
   239 s117         *              0             0             1 
   240 s120         *              0             0             1 
   241 s107         *              0             0             1 
   242 s109         *              0             0             1 
   243 s128         *              0             0             1 
   244 s132         *              0             0             1 
   245 s134         *              0             0             1 
   246 s36          *              1             0             1 
   247 s112         *              0             0             1 
   248 s14          *              1             0             1 
   249 s20          *              0             0             1 
   250 s23          *              0             0             1 
   251 s65          *              0             0             1 
   252 s76          *              0             0             1 
   253 s80          *              0             0             1 
   254 s130         *              0             0             1 

Integer feasibility conditions:

KKT.PE: max.abs.err = 0.00e+00 on row 0
        max.rel.err = 0.00e+00 on row 0
        High quality

KKT.PB: max.abs.err = 0.00e+00 on row 0
        max.rel.err = 0.00e+00 on row 0
        High quality

End of output
